Geographic Exponential Decay
20 199 172 275 303 271 16 234 180 89 130 268 52 100 20 7 278 258 107 248 3
p edge 320 1293
e 0 41 1.0
e 0 90 18.0
e 0 237 1.0
e 1 61 1.0
e 1 138 7.0
e 1 140 5.0
e 1 160 12.0
e 1 80 5.0
e 2 92 3.0
e 2 123 3.0
e 3 193 81.0
e 3 234 38.0
e 3 51 6.0
e 3 96 20.0
e 3 175 37.0
e 3 124 22.0
e 3 257 96.0
e 3 239 96.0
e 3 108 96.0
e 3 78 49.0
e 3 189 70.0
e 3 220 22.0
e 3 231 23.0
e 3 242 75.0
e 3 109 69.0
e 3 76 1.0
e 3 202 92.0
e 3 147 91.0
e 3 68 92.0
e 3 43 68.0
e 3 182 12.0
e 3 233 49.0
e 3 13 80.0
e 3 160 49.0
e 3 188 90.0
e 3 294 72.0
e 3 260 10.0
e 3 44 59.0
e 3 283 16.0
e 3 17 72.0
e 3 192 68.0
e 3 190 76.0
e 3 107 100.0
e 3 156 76.0
e 3 207 77.0
e 3 145 29.0
e 3 81 72.0
e 4 148 12.0
e 4 191 2.0
e 4 84 4.0
e 4 250 10.0
e 4 232 4.0
e 5 146 4.0
e 5 191 1.0
e 5 219 1.0
e 6 312 2.0
e 6 127 1.0
e 6 293 1.0
e 7 2 8.0
e 7 190 12.0
e 7 204 27.0
e 7 217 9.0
e 7 62 1.0
e 7 193 65.0
e 7 11 84.0
e 7 24 90.0
e 7 224 66.0
e 7 307 61.0
e 7 244 10.0
e 7 231 62.0
e 7 101 90.0
e 7 248 43.0
e 7 41 98.0
e 7 46 29.0
e 7 194 75.0
e 7 230 84.0
e 7 71 77.0
e 7 257 40.0
e 7 28 64.0
e 7 263 70.0
e 7 262 95.0
e 7 107 10.0
e 7 159 83.0
e 7 119 93.0
e 7 290 15.0
e 7 90 71.0
e 7 76 88.0
e 7 140 27.0
e 7 219 56.0
e 7 195 23.0
e 7 298 38.0
e 7 199 99.0
e 7 31 64.0
e 7 249 8.0
e 7 282 87.0
e 8 276 3.0
e 8 218 1.0
e 9 241 1.0
e 9 173 4.0
e 9 28 2.0
e 10 271 79.0
e 10 151 1.0
e 11 237 23.0
e 11 71 20.0
e 11 164 17.0
e 11 158 20.0
e 11 5 10.0
e 11 156 8.0
e 11 224 17.0
e 11 151 14.0
e 11 159 18.0
e 12 275 44.0
e 12 24 1.0
e 12 136 7.0
e 12 301 8.0
e 12 148 10.0
e 13 1 1.0
e 14 191 1.0
e 14 142 4.0
e 14 34 5.0
e 15 309 1.0
e 15 106 1.0
e 15 98 2.0
e 16 6 85.0
e 16 195 92.0
e 16 80 29.0
e 16 28 10.0
e 16 60 1.0
e 16 275 28.0
e 16 26 42.0
e 16 245 13.0
e 16 171 13.0
e 16 84 84.0
e 16 158 55.0
e 16 196 89.0
e 16 65 65.0
e 16 123 82.0
e 16 217 96.0
e 16 268 90.0
e 16 148 92.0
e 16 101 97.0
e 16 164 2.0
e 16 163 12.0
e 16 85 29.0
e 16 50 96.0
e 16 4 6.0
e 16 311 12.0
e 16 79 66.0
e 16 179 85.0
e 16 236 41.0
e 16 7 36.0
e 16 253 66.0
e 16 19 95.0
e 16 81 51.0
e 16 112 25.0
e 16 53 47.0
e 16 297 87.0
e 16 49 91.0
e 16 68 33.0
e 16 42 10.0
e 17 289 9.0
e 18 187 10.0
e 18 32 2.0
e 19 198 4.0
e 19 67 8.0
e 20 117 97.0
e 20 248 77.0
e 20 219 69.0
e 20 53 53.0
e 20 169 89.0
e 20 38 12.0
e 20 215 27.0
e 20 118 86.0
e 20 312 85.0
e 20 310 8.0
e 20 0 91.0
e 20 127 37.0
e 20 290 95.0
e 20 313 32.0
e 20 272 20.0
e 20 275 72.0
e 20 228 65.0
e 20 278 48.0
e 20 284 22.0
e 20 60 96.0
e 20 299 41.0
e 20 194 2.0
e 20 41 90.0
e 20 220 90.0
e 20 314 17.0
e 20 162 47.0
e 20 36 98.0
e 20 12 98.0
e 20 138 3.0
e 20 1 65.0
e 20 21 36.0
e 20 258 96.0
e 20 84 16.0
e 20 22 60.0
e 20 257 33.0
e 20 126 5.0
e 20 244 44.0
e 21 163 2.0
e 21 135 5.0
e 22 240 2.0
e 23 202 6.0
e 23 10 2.0
e 23 211 1.0
e 25 252 1.0
e 25 100 5.0
e 26 4 6.0
e 26 254 9.0
e 26 258 91.0
e 26 184 12.0
e 27 70 5.0
e 27 278 35.0
e 29 279 4.0
e 29 143 1.0
e 29 69 5.0
e 30 256 7.0
e 30 290 1.0
e 30 0 1.0
e 30 138 11.0
e 30 181 8.0
e 31 48 3.0
e 31 209 2.0
e 32 76 12.0
e 32 51 11.0
e 32 262 8.0
e 32 28 6.0
e 33 176 3.0
e 33 216 4.0
e 33 21 7.0
e 33 63 3.0
e 33 98 11.0
e 34 252 1.0
e 34 149 1.0
e 35 261 16.0
e 35 125 3.0
e 36 213 1.0
e 37 248 42.0
e 37 127 4.0
e 37 145 6.0
e 38 82 5.0
e 39 110 11.0
e 39 187 5.0
e 39 9 2.0
e 39 32 5.0
e 39 246 4.0
e 40 242 1.0
e 40 120 2.0
e 42 95 4.0
e 43 154 9.0
e 43 18 10.0
e 43 2 1.0
e 43 211 1.0
e 44 83 1.0
e 45 267 4.0
e 45 306 1.0
e 45 296 3.0
e 46 150 3.0
e 46 248 30.0
e 47 239 6.0
e 47 123 2.0
e 47 176 4.0
e 48 46 6.0
e 49 298 5.0
e 49 109 1.0
e 50 11 9.0
e 50 277 2.0
e 51 106 1.0
e 52 63 46.0
e 52 292 26.0
e 52 281 15.0
e 52 30 21.0
e 52 89 53.0
e 52 47 4.0
e 52 150 36.0
e 52 202 48.0
e 52 67 74.0
e 52 285 57.0
e 52 90 45.0
e 52 252 43.0
e 52 117 14.0
e 52 251 8.0
e 52 268 34.0
e 52 186 90.0
e 52 180 31.0
e 52 95 98.0
e 52 129 60.0
e 52 110 46.0
e 52 54 48.0
e 52 256 20.0
e 52 311 73.0
e 52 304 39.0
e 52 255 13.0
e 52 276 59.0
e 52 283 33.0
e 52 203 71.0
e 52 29 69.0
e 52 275 15.0
e 52 244 43.0
e 52 76 46.0
e 52 303 47.0
e 52 151 58.0
e 52 258 84.0
e 52 317 81.0
e 52 20 92.0
e 54 46 5.0
e 55 281 2.0
e 55 112 2.0
e 56 22 1.0
e 56 74 1.0
e 57 234 98.0
e 57 78 4.0
e 57 229 2.0
e 58 159 2.0
e 58 291 1.0
e 58 315 1.0
e 59 53 1.0
e 59 275 1.0
e 60 226 1.0
e 61 123 3.0
e 61 256 5.0
e 62 46 12.0
e 62 250 2.0
e 62 150 7.0
e 62 65 1.0
e 63 156 10.0
e 63 23 12.0
e 63 294 2.0
e 64 302 4.0
e 64 166 20.0
e 64 310 18.0
e 64 186 2.0
e 64 207 15.0
e 64 86 1.0
e 64 14 20.0
e 64 36 18.0
e 64 179 7.0
e 64 195 13.0
e 65 224 20.0
e 65 95 25.0
e 65 302 37.0
e 65 128 26.0
e 65 166 31.0
e 65 167 7.0
e 65 234 20.0
e 65 282 28.0
e 65 303 9.0
e 65 118 6.0
e 65 150 6.0
e 65 223 27.0
e 65 1 47.0
e 65 82 48.0
e 65 142 34.0
e 65 233 49.0
e 65 312 1.0
e 66 189 13.0
e 66 27 24.0
e 66 277 14.0
e 66 260 19.0
e 66 192 4.0
e 66 155 16.0
e 66 222 6.0
e 66 163 23.0
e 66 9 16.0
e 66 122 19.0
e 67 140 21.0
e 67 80 2.0
e 67 33 3.0
e 67 139 19.0
e 67 182 3.0
e 67 164 24.0
e 67 273 2.0
e 67 104 3.0
e 68 100 90.0
e 68 227 8.0
e 68 156 3.0
e 69 23 4.0
e 69 118 5.0
e 69 202 5.0
e 69 258 86.0
e 70 13 1.0
e 70 246 2.0
e 72 299 5.0
e 72 49 3.0
e 72 96 7.0
e 73 43 6.0
e 73 90 13.0
e 73 170 10.0
e 73 146 1.0
e 73 58 1.0
e 74 125 2.0
e 74 157 11.0
e 75 166 3.0
e 75 306 1.0
e 75 185 11.0
e 77 115 1.0
e 77 213 1.0
e 79 235 2.0
e 82 85 6.0
e 82 252 4.0
e 82 8 11.0
e 83 94 2.0
e 84 63 12.0
e 84 210 1.0
e 86 282 11.0
e 86 196 10.0
e 86 58 7.0
e 86 156 6.0
e 87 206 48.0
e 87 67 21.0
e 87 66 10.0
e 87 74 35.0
e 87 246 16.0
e 87 22 34.0
e 87 176 10.0
e 87 241 5.0
e 87 183 49.0
e 87 268 16.0
e 87 123 8.0
e 87 32 44.0
e 87 85 29.0
e 87 129 20.0
e 87 203 12.0
e 87 39 38.0
e 87 89 56.0
e 87 194 5.0
e 87 2 6.0
e 88 62 1.0
e 88 117 2.0
e 89 273 100.0
e 89 202 57.0
e 89 176 66.0
e 89 0 95.0
e 89 149 41.0
e 89 255 64.0
e 89 292 11.0
e 89 146 94.0
e 89 124 1.0
e 89 31 57.0
e 89 64 43.0
e 89 56 39.0
e 89 17 23.0
e 89 198 81.0
e 89 257 47.0
e 89 139 29.0
e 89 112 20.0
e 89 164 53.0
e 89 246 59.0
e 89 178 90.0
e 89 205 26.0
e 89 28 72.0
e 89 309 27.0
e 89 16 24.0
e 89 311 50.0
e 89 294 75.0
e 89 243 30.0
e 89 36 48.0
e 89 98 53.0
e 89 97 69.0
e 89 51 32.0
e 89 100 76.0
e 89 59 66.0
e 89 66 100.0
e 89 109 86.0
e 90 4 16.0
e 90 269 5.0
e 90 35 3.0
e 90 194 13.0
e 90 53 17.0
e 90 225 1.0
e 91 171 2.0
e 91 274 3.0
e 92 38 2.0
e 92 317 13.0
e 93 307 5.0
e 93 98 5.0
e 93 164 3.0
e 94 93 1.0
e 96 55 5.0
e 96 246 3.0
e 96 87 21.0
e 97 48 1.0
e 97 262 1.0
e 99 12 8.0
e 99 316 3.0
e 100 45 10.0
e 100 280 43.0
e 100 236 76.0
e 100 38 40.0
e 100 257 33.0
e 100 295 2.0
e 100 283 35.0
e 100 154 32.0
e 100 97 95.0
e 100 168 93.0
e 100 203 82.0
e 100 133 51.0
e 100 69 28.0
e 100 169 27.0
e 100 98 41.0
e 100 278 69.0
e 100 128 4.0
e 100 126 26.0
e 100 87 17.0
e 100 51 40.0
e 100 279 58.0
e 100 75 74.0
e 100 77 2.0
e 100 146 63.0
e 100 281 67.0
e 100 254 70.0
e 100 266 52.0
e 100 15 71.0
e 100 52 42.0
e 100 309 5.0
e 100 232 35.0
e 100 78 58.0
e 100 58 48.0
e 100 108 85.0
e 101 46 41.0
e 101 92 49.0
e 101 145 16.0
e 101 11 41.0
e 101 255 1.0
e 101 268 76.0
e 101 78 47.0
e 101 216 11.0
e 101 13 23.0
e 101 285 45.0
e 101 52 58.0
e 101 114 2.0
e 101 170 5.0
e 101 149 36.0
e 101 225 34.0
e 101 263 4.0
e 101 162 2.0
e 102 32 8.0
e 102 4 2.0
e 103 225 3.0
e 103 221 4.0
e 104 201 5.0
e 104 279 2.0
e 105 124 6.0
e 105 238 5.0
e 105 114 2.0
e 107 41 84.0
e 107 276 80.0
e 107 219 12.0
e 107 305 1.0
e 107 108 78.0
e 107 112 99.0
e 107 243 11.0
e 107 183 9.0
e 107 245 21.0
e 107 163 7.0
e 107 111 71.0
e 107 239 94.0
e 107 254 93.0
e 107 281 45.0
e 107 135 22.0
e 107 287 52.0
e 107 44 54.0
e 107 92 42.0
e 107 259 16.0
e 107 152 28.0
e 107 32 69.0
e 107 307 43.0
e 107 12 66.0
e 107 302 21.0
e 107 282 45.0
e 107 193 94.0
e 107 53 100.0
e 107 93 35.0
e 107 181 79.0
e 107 308 14.0
e 107 227 60.0
e 107 203 41.0
e 107 150 27.0
e 107 106 35.0
e 107 33 4.0
e 108 188 1.0
e 108 91 5.0
e 111 240 1.0
e 113 35 14.0
e 113 262 4.0
e 113 63 14.0
e 113 169 15.0
e 113 33 14.0
e 113 20 91.0
e 113 308 13.0
e 113 171 16.0
e 113 28 13.0
e 113 105 7.0
e 114 12 1.0
e 114 235 10.0
e 114 59 3.0
e 115 267 5.0
e 115 112 1.0
e 116 152 2.0
e 116 84 5.0
e 119 25 2.0
e 119 286 1.0
e 120 20 11.0
e 121 289 3.0
e 121 184 3.0
e 121 286 1.0
e 122 237 2.0
e 122 92 2.0
e 124 189 1.0
e 124 106 2.0
e 124 164 4.0
e 124 33 11.0
e 124 193 23.0
e 124 206 16.0
e 124 47 8.0
e 125 211 3.0
e 128 193 1.0
e 128 59 7.0
e 128 295 9.0
e 130 71 20.0
e 130 30 43.0
e 130 132 48.0
e 130 235 96.0
e 130 266 26.0
e 130 308 48.0
e 130 125 35.0
e 130 215 16.0
e 130 39 37.0
e 130 99 99.0
e 130 255 47.0
e 130 139 79.0
e 130 254 5.0
e 130 301 78.0
e 130 244 3.0
e 130 236 11.0
e 130 54 60.0
e 130 86 34.0
e 130 165 53.0
e 130 41 67.0
e 130 46 24.0
e 130 293 3.0
e 130 168 35.0
e 130 69 11.0
e 130 238 12.0
e 130 27 79.0
e 130 118 71.0
e 130 140 14.0
e 130 61 96.0
e 130 196 30.0
e 130 152 46.0
e 130 290 46.0
e 130 158 31.0
e 130 91 97.0
e 130 138 38.0
e 130 51 64.0
e 130 105 66.0
e 131 61 7.0
e 131 122 8.0
e 131 88 2.0
e 131 277 2.0
e 131 242 1.0
e 132 258 86.0
e 132 310 1.0
e 132 133 18.0
e 132 62 16.0
e 132 0 23.0
e 132 217 18.0
e 132 204 19.0
e 132 46 14.0
e 132 192 19.0
e 133 312 2.0
e 134 127 2.0
e 134 40 1.0
e 134 291 6.0
e 136 307 1.0
e 136 139 4.0
e 137 243 5.0
e 137 56 1.0
e 137 154 1.0
e 140 3 40.0
e 141 302 9.0
e 141 246 18.0
e 141 59 8.0
e 141 133 6.0
e 141 30 15.0
e 141 277 23.0
e 141 47 2.0
e 141 19 20.0
e 141 250 17.0
e 141 155 23.0
e 142 249 6.0
e 142 289 2.0
e 142 120 16.0
e 142 40 22.0
e 142 313 21.0
e 142 77 17.0
e 142 102 20.0
e 142 208 28.0
e 143 65 1.0
e 144 249 1.0
e 144 264 1.0
e 147 290 9.0
e 150 302 7.0
e 150 135 2.0
e 150 140 14.0
e 150 96 1.0
e 150 155 2.0
e 153 301 1.0
e 153 300 5.0
e 157 262 12.0
e 157 172 70.0
e 157 76 7.0
e 157 78 4.0
e 159 270 1.0
e 159 19 11.0
e 161 263 3.0
e 161 278 8.0
e 161 87 9.0
e 165 152 3.0
e 167 86 1.0
e 170 107 27.0
e 172 207 63.0
e 172 156 21.0
e 172 263 83.0
e 172 142 2.0
e 172 19 32.0
e 172 74 58.0
e 172 33 42.0
e 172 120 65.0
e 172 162 93.0
e 172 116 58.0
e 172 18 23.0
e 172 72 34.0
e 172 181 15.0
e 172 158 15.0
e 172 300 29.0
e 172 60 36.0
e 172 135 24.0
e 172 301 26.0
e 172 264 80.0
e 172 164 39.0
e 172 259 74.0
e 172 75 7.0
e 172 125 64.0
e 172 35 99.0
e 172 27 56.0
e 172 117 66.0
e 172 79 60.0
e 172 315 48.0
e 172 99 61.0
e 172 104 67.0
e 172 154 52.0
e 172 28 59.0
e 172 118 69.0
e 172 303 96.0
e 172 77 94.0
e 172 235 54.0
e 173 304 40.0
e 174 167 1.0
e 174 169 1.0
e 174 182 9.0
e 174 177 1.0
e 174 128 1.0
e 175 13 9.0
e 175 239 9.0
e 175 44 4.0
e 175 74 10.0
e 177 272 4.0
e 178 274 1.0
e 179 158 9.0
e 179 92 4.0
e 179 148 9.0
e 180 71 21.0
e 180 184 79.0
e 180 318 56.0
e 180 88 39.0
e 180 7 92.0
e 180 166 60.0
e 180 307 37.0
e 180 42 80.0
e 180 101 33.0
e 180 131 83.0
e 180 86 20.0
e 180 209 8.0
e 180 109 9.0
e 180 198 57.0
e 180 303 77.0
e 180 80 66.0
e 180 134 3.0
e 180 140 55.0
e 180 199 60.0
e 180 95 13.0
e 180 306 61.0
e 180 56 31.0
e 180 44 63.0
e 180 229 49.0
e 180 53 13.0
e 180 135 54.0
e 180 10 9.0
e 180 128 100.0
e 180 121 71.0
e 180 47 52.0
e 180 96 85.0
e 180 270 34.0
e 180 210 36.0
e 180 141 7.0
e 180 308 17.0
e 180 66 55.0
e 181 72 29.0
e 181 164 43.0
e 181 238 11.0
e 181 47 31.0
e 181 178 26.0
e 181 10 17.0
e 181 246 7.0
e 181 79 3.0
e 181 217 38.0
e 181 140 39.0
e 181 234 24.0
e 181 163 26.0
e 181 80 8.0
e 181 202 44.0
e 181 166 2.0
e 181 64 32.0
e 183 196 9.0
e 183 219 1.0
e 183 229 5.0
e 185 14 7.0
e 185 188 10.0
e 185 266 1.0
e 185 24 7.0
e 187 132 19.0
e 187 218 1.0
e 187 73 3.0
e 189 249 11.0
e 189 309 3.0
e 197 255 9.0
e 197 112 2.0
e 199 236 60.0
e 199 77 79.0
e 199 226 62.0
e 199 225 25.0
e 199 298 57.0
e 199 206 81.0
e 199 100 26.0
e 199 33 85.0
e 199 25 13.0
e 199 97 44.0
e 199 137 62.0
e 199 96 85.0
e 199 106 20.0
e 199 171 13.0
e 199 315 80.0
e 199 156 69.0
e 199 172 91.0
e 199 235 68.0
e 199 303 18.0
e 199 184 57.0
e 199 283 40.0
e 199 222 74.0
e 199 8 13.0
e 199 169 77.0
e 199 204 21.0
e 199 264 78.0
e 199 271 53.0
e 199 21 45.0
e 199 258 68.0
e 199 85 3.0
e 199 19 94.0
e 199 247 25.0
e 199 288 20.0
e 199 11 79.0
e 199 179 99.0
e 200 283 2.0
e 200 261 6.0
e 200 89 47.0
e 201 206 2.0
e 205 255 2.0
e 205 295 2.0
e 208 226 45.0
e 208 169 36.0
e 208 255 18.0
e 208 148 33.0
e 208 204 43.0
e 208 140 44.0
e 208 243 11.0
e 208 220 39.0
e 208 119 24.0
e 208 267 43.0
e 208 122 42.0
e 208 317 8.0
e 208 17 29.0
e 208 250 30.0
e 208 151 47.0
e 208 83 22.0
e 208 117 31.0
e 208 180 20.0
e 212 73 7.0
e 212 134 3.0
e 212 229 4.0
e 214 46 7.0
e 214 10 17.0
e 214 140 12.0
e 214 221 2.0
e 214 137 16.0
e 214 153 18.0
e 214 256 8.0
e 214 14 8.0
e 214 9 11.0
e 214 51 1.0
e 216 206 21.0
e 216 60 21.0
e 216 20 83.0
e 216 55 9.0
e 216 266 6.0
e 216 27 17.0
e 216 99 12.0
e 216 19 8.0
e 221 290 9.0
e 221 121 8.0
e 221 60 1.0
e 222 108 11.0
e 222 177 1.0
e 222 220 11.0
e 223 135 1.0
e 228 278 44.0
e 228 168 4.0
e 230 241 11.0
e 230 242 3.0
e 233 229 27.0
e 233 316 13.0
e 233 208 8.0
e 233 111 14.0
e 233 128 1.0
e 233 58 16.0
e 233 91 49.0
e 233 293 35.0
e 233 206 31.0
e 233 79 24.0
e 233 39 12.0
e 233 60 39.0
e 233 224 8.0
e 233 33 49.0
e 233 251 18.0
e 233 252 46.0
e 233 137 25.0
e 234 237 4.0
e 234 278 48.0
e 234 135 67.0
e 234 293 48.0
e 234 296 38.0
e 234 174 19.0
e 234 228 43.0
e 234 297 27.0
e 234 267 95.0
e 234 55 1.0
e 234 289 49.0
e 234 188 8.0
e 234 195 2.0
e 234 43 31.0
e 234 78 38.0
e 234 8 80.0
e 234 50 89.0
e 234 266 54.0
e 234 38 59.0
e 234 236 24.0
e 234 69 3.0
e 234 116 21.0
e 234 170 93.0
e 234 87 33.0
e 234 303 70.0
e 234 193 12.0
e 234 89 40.0
e 234 160 93.0
e 234 209 61.0
e 234 32 54.0
e 234 120 16.0
e 234 318 76.0
e 234 130 21.0
e 236 21 15.0
e 236 228 7.0
e 236 302 7.0
e 236 85 3.0
e 236 269 8.0
e 237 29 3.0
e 239 292 4.0
e 241 103 6.0
e 241 95 3.0
e 247 92 1.0
e 247 181 39.0
e 248 51 69.0
e 248 108 63.0
e 248 300 50.0
e 248 305 86.0
e 248 12 55.0
e 248 307 34.0
e 248 222 13.0
e 248 252 13.0
e 248 98 43.0
e 248 133 91.0
e 248 177 65.0
e 248 97 67.0
e 248 234 43.0
e 248 73 83.0
e 248 190 17.0
e 248 317 10.0
e 248 316 40.0
e 248 308 34.0
e 248 111 15.0
e 248 306 64.0
e 248 60 90.0
e 248 146 29.0
e 248 303 41.0
e 248 302 33.0
e 248 287 42.0
e 248 88 42.0
e 248 5 93.0
e 248 309 48.0
e 248 184 26.0
e 248 99 59.0
e 248 185 42.0
e 248 285 53.0
e 248 166 33.0
e 253 119 1.0
e 253 105 4.0
e 258 208 80.0
e 258 193 68.0
e 258 254 84.0
e 258 303 40.0
e 258 133 92.0
e 258 76 55.0
e 258 122 71.0
e 258 9 88.0
e 258 297 55.0
e 258 109 56.0
e 258 216 22.0
e 258 217 90.0
e 258 286 60.0
e 258 107 2.0
e 258 290 56.0
e 258 186 75.0
e 258 163 70.0
e 258 95 77.0
e 258 23 81.0
e 258 74 37.0
e 258 264 70.0
e 258 27 15.0
e 258 223 66.0
e 258 100 49.0
e 258 97 58.0
e 258 202 40.0
e 258 300 97.0
e 258 67 54.0
e 258 294 23.0
e 258 317 30.0
e 258 25 48.0
e 260 67 10.0
e 260 5 4.0
e 260 39 5.0
e 261 103 9.0
e 261 8 23.0
e 261 264 12.0
e 261 181 34.0
e 261 236 21.0
e 261 148 10.0
e 261 142 11.0
e 261 150 21.0
e 263 92 6.0
e 265 299 1.0
e 265 257 1.0
e 265 246 3.0
e 268 251 46.0
e 268 225 61.0
e 268 207 69.0
e 268 118 28.0
e 268 102 91.0
e 268 47 77.0
e 268 50 92.0
e 268 145 78.0
e 268 45 100.0
e 268 190 1.0
e 268 46 63.0
e 268 244 45.0
e 268 9 99.0
e 268 299 37.0
e 268 309 38.0
e 268 42 57.0
e 268 213 86.0
e 268 17 27.0
e 268 217 81.0
e 268 12 59.0
e 268 286 25.0
e 268 53 31.0
e 268 224 23.0
e 268 180 16.0
e 268 0 77.0
e 268 188 41.0
e 268 108 100.0
e 268 238 48.0
e 268 198 93.0
e 268 100 42.0
e 268 208 98.0
e 268 119 72.0
e 268 19 11.0
e 269 291 1.0
e 270 235 7.0
e 270 49 1.0
e 270 116 8.0
e 271 39 42.0
e 271 40 59.0
e 271 112 57.0
e 271 25 75.0
e 271 104 81.0
e 271 105 77.0
e 271 158 36.0
e 271 215 29.0
e 271 124 25.0
e 271 245 94.0
e 271 121 77.0
e 271 256 19.0
e 271 178 94.0
e 271 240 51.0
e 271 72 63.0
e 271 246 85.0
e 271 0 35.0
e 271 211 42.0
e 271 312 90.0
e 271 248 11.0
e 271 262 100.0
e 271 210 33.0
e 271 272 52.0
e 271 28 85.0
e 271 43 88.0
e 271 247 14.0
e 271 241 25.0
e 271 6 46.0
e 271 228 73.0
e 271 1 79.0
e 271 243 68.0
e 271 162 27.0
e 271 23 93.0
e 271 47 33.0
e 271 7 96.0
e 272 80 2.0
e 272 133 1.0
e 275 30 21.0
e 275 195 13.0
e 275 207 19.0
e 275 219 28.0
e 275 277 35.0
e 275 23 68.0
e 275 262 33.0
e 275 185 43.0
e 275 21 62.0
e 275 233 63.0
e 275 79 1.0
e 275 235 71.0
e 275 210 37.0
e 275 80 99.0
e 275 298 10.0
e 275 156 31.0
e 275 106 33.0
e 275 186 20.0
e 275 143 85.0
e 275 117 83.0
e 275 166 2.0
e 275 118 100.0
e 275 309 1.0
e 275 55 35.0
e 275 64 96.0
e 275 14 85.0
e 275 224 61.0
e 275 287 38.0
e 275 111 57.0
e 275 29 33.0
e 275 246 49.0
e 275 187 29.0
e 278 159 19.0
e 278 25 28.0
e 278 86 75.0
e 278 244 92.0
e 278 16 60.0
e 278 144 66.0
e 278 182 64.0
e 278 176 77.0
e 278 61 21.0
e 278 62 100.0
e 278 70 16.0
e 278 115 52.0
e 278 231 11.0
e 278 71 5.0
e 278 87 92.0
e 278 18 69.0
e 278 236 2.0
e 278 128 65.0
e 278 127 12.0
e 278 9 31.0
e 278 74 90.0
e 278 317 16.0
e 278 213 55.0
e 278 85 83.0
e 278 83 17.0
e 278 63 57.0
e 278 242 63.0
e 278 302 35.0
e 278 48 47.0
e 278 181 66.0
e 278 229 6.0
e 280 170 8.0
e 280 59 3.0
e 280 318 1.0
e 280 303 30.0
e 280 16 17.0
e 280 116 1.0
e 280 243 23.0
e 280 6 13.0
e 280 294 15.0
e 284 0 1.0
e 284 252 3.0
e 288 223 1.0
e 288 167 4.0
e 289 169 16.0
e 289 222 23.0
e 289 317 18.0
e 289 148 14.0
e 289 60 18.0
e 289 91 3.0
e 296 99 2.0
e 303 210 18.0
e 303 189 30.0
e 303 69 47.0
e 303 125 11.0
e 303 281 81.0
e 303 124 2.0
e 303 237 60.0
e 303 240 70.0
e 303 108 98.0
e 303 166 16.0
e 303 243 73.0
e 303 228 80.0
e 303 88 18.0
e 303 265 20.0
e 303 149 34.0
e 303 162 48.0
e 303 158 87.0
e 303 197 29.0
e 303 185 16.0
e 303 259 1.0
e 303 244 89.0
e 303 309 41.0
e 303 144 5.0
e 303 114 72.0
e 303 132 14.0
e 303 33 95.0
e 303 133 25.0
e 303 122 72.0
e 304 47 6.0
e 304 30 50.0
e 304 2 38.0
e 304 31 19.0
e 304 110 39.0
e 304 138 17.0
e 304 42 14.0
e 304 302 30.0
e 304 273 50.0
e 304 268 88.0
e 304 293 20.0
e 304 242 4.0
e 304 183 44.0
e 304 4 14.0
e 304 36 17.0
e 304 218 20.0
e 304 188 14.0
e 314 205 8.0
e 314 25 4.0
e 314 250 24.0
e 314 7 59.0
e 314 3 76.0
e 314 214 24.0
e 314 87 45.0
e 314 131 20.0
e 314 215 15.0
e 317 106 1.0
e 317 123 18.0
e 317 296 24.0
e 319 199 98.0
e 319 297 11.0
e 319 176 9.0
e 319 258 39.0
e 319 98 1.0
